c ****************************************************************
c **     This is a Sat-2003 Competition *SHUFFLED* instance     **
c ****************************************************************
c N.B. This header has been added to the file after the competition
c Please do contact L. Simon for more informations (simon@lri.fr)
c 
c Bench submitted by: Rachel Bevan (McGill University, Montreal, CA)
c              email: rachel@mcb.mcgill.ca
c 
c The original name of this formula was: 
c    handmade/bevan/cnf/marg3x3add4.cnf
c Category : HandMade
c The name used during the competition was: 
c     handmade/set103/sat03-1446.cnf
c The random seed used to shuffle this instance  was: 719844136
c 
c CPU time of solvers on this bench during the first stage 
c  (including Hors-Concours solvers):
c   +------------+--------+--------+
c   | Solver     | Time   | Answer |
c   +------------+--------+--------+
c   | lsat       |   0.02 |  UNSAT |
c   | tts        |   0.05 |  UNSAT |
c   | berkmin561 |   0.23 |  UNSAT |
c   | forklift   |   0.27 |  UNSAT |
c   | satnik     |   0.40 |  UNSAT |
c   | berkmin62  |   0.73 |  UNSAT |
c   | siege      |   1.14 |  UNSAT |
c   | satzoo1    |   1.19 |  UNSAT |
c   | satzilla   |   1.80 |  UNSAT |
c   | satzoo0    |   1.95 |  UNSAT |
c   | jerusat1b  |   2.28 |  UNSAT |
c   | jerusat1a  |   2.61 |  UNSAT |
c   | jerusat1c  |   5.49 |  UNSAT |
c   | kcnfs      |   6.06 |  UNSAT |
c   | xqingting  |   6.84 |  UNSAT |
c   | funex      |  14.57 |  UNSAT |
c   | bmsat      |  14.82 |  UNSAT |
c   | zchaff     |  20.36 |  UNSAT |
c   | marchsp    |  20.84 |  UNSAT |
c   | limmat     |  23.92 |  UNSAT |
c   | marchtt    |  26.62 |  UNSAT |
c   | oepir      |  32.42 |  UNSAT |
c   | satzilla2  |  33.76 |  UNSAT |
c   | sato       |  33.97 |  UNSAT |
c   | jquest2    |  55.15 |  UNSAT |
c   | amvo       | 900.00 |   --   |
c   | compsat    | 900.00 |   --   |
c   | farseer    | 900.00 |   --   |
c   | marchxq    | 900.00 |   --   |
c   | opensat    | 900.00 |   --   |
c   | qingting   | 900.00 |   --   |
c   | saturn     | 900.00 |   --   |
c   | unitwalk   | 900.00 |   --   |
c   +------------+--------+--------+
c
c Old header begins here:
c The random seed used to shuffle this instance was seed=719844136
p cnf 37 160
-31 6 -35 -30 0
9 12 36 -33 0
30 6 31 -35 0
1 -3 35 8 0
-3 -1 -35 8 0
12 -33 -36 -9 0
-18 5 -16 15 0
-36 -20 -3 -17 -13 0
-15 18 -16 5 0
-16 14 6 10 0
35 3 8 -1 0
-37 23 20 -26 30 0
-6 10 -14 -16 0
-11 -29 18 -28 0
-21 28 5 -9 0
-37 30 -26 -23 -20 0
-24 -13 4 2 0
-22 -17 -21 31 0
-31 21 -22 -17 0
32 27 -11 25 0
-18 -28 11 -29 0
9 28 -5 -21 0
7 19 4 8 0
-16 14 -6 -10 0
11 27 32 -25 0
34 -25 -19 -29 0
-11 -25 27 -32 0
-16 -5 -18 -15 0
7 15 -34 14 0
-22 -27 -1 37 0
-11 28 18 29 0
-30 37 -26 -20 -23 0
-26 23 37 20 -30 0
-12 33 -9 -36 0
-2 -13 -4 -24 0
-25 -34 29 -19 0
-27 -25 -32 11 0
27 1 -22 37 0
3 -8 35 1 0
4 24 13 2 0
-9 28 21 -5 0
-3 35 -8 -1 0
-17 22 -21 -31 0
4 -19 -7 8 0
4 -24 -2 13 0
34 -14 -7 -15 0
-14 15 -34 -7 0
-34 25 19 29 0
31 -30 35 6 0
33 -10 23 24 0
-12 -32 2 -26 0
-27 -11 25 -32 0
12 36 -9 33 0
12 -32 -2 -26 0
25 11 27 -32 0
-1 27 -37 -22 0
25 -19 -29 -34 0
34 29 25 -19 0
-30 20 -26 -37 -23 0
-30 31 -35 -6 0
-5 -28 9 21 0
6 10 -14 16 0
37 23 30 -20 -26 0
-18 29 28 11 0
30 -20 26 -37 23 0
-2 26 -32 -12 0
3 -17 -13 -20 36 0
-3 13 36 -17 -20 0
22 17 -21 31 0
-37 26 -30 -20 -23 0
-20 3 -36 17 -13 0
32 2 12 -26 0
-27 22 1 37 0
16 5 18 15 0
15 34 7 -14 0
14 34 -7 15 0
3 36 20 -13 17 0
3 -36 -17 -13 20 0
-10 16 6 14 0
-36 17 13 20 3 0
17 36 -3 13 20 0
-11 29 -18 -28 0
-29 11 28 18 0
-1 -35 -8 3 0
16 5 -18 -15 0
-6 -31 35 -30 0
30 -31 6 35 0
-4 13 -2 24 0
12 -32 2 26 0
-28 -5 -21 -9 0
8 1 3 -35 0
21 5 -28 -9 0
-37 23 -30 -26 -20 0
-12 -33 -36 9 0
17 21 31 -22 0
-33 -12 -9 36 0
1 -37 -27 -22 0
-20 26 37 23 -30 0
-6 16 10 14 0
37 20 -23 30 -26 0
-6 30 -31 -35 0
17 21 22 -31 0
-30 26 20 23 -37 0
24 -2 4 -13 0
-4 8 -7 19 0
-15 7 14 34 0
-15 7 -14 -34 0
-10 -6 -14 16 0
-3 -13 20 -17 36 0
19 4 -8 -7 0
-8 -35 1 -3 0
26 30 -23 37 -20 0
-29 -34 19 -25 0
23 -33 24 10 0
5 21 9 28 0
10 33 -23 24 0
9 -12 33 36 0
-10 -33 -24 23 0
22 27 -1 37 0
-4 8 7 -19 0
-8 4 7 -19 0
36 17 13 -20 3 0
-31 -21 -22 17 0
19 -29 25 34 0
-27 -1 22 -37 0
15 16 -5 -18 0
2 -24 -4 13 0
-10 -33 24 -23 0
32 25 11 -27 0
17 -13 20 -36 -3 0
-23 20 30 -37 26 0
-27 32 -11 -25 0
28 -29 -11 -18 0
2 24 -4 -13 0
13 -17 -36 20 -3 0
9 33 12 -36 0
-10 -14 -16 6 0
10 33 -24 23 0
-20 13 -36 -17 3 0
-23 33 -10 -24 0
37 -23 26 20 -30 0
-17 13 3 20 36 0
32 2 -12 26 0
26 -2 12 32 0
36 -13 -3 17 -20 0
22 -37 1 27 0
16 18 -15 -5 0
19 -8 7 -4 0
-7 -34 14 -15 0
10 -33 -23 -24 0
-12 32 -26 -2 0
-4 -19 -7 -8 0
29 19 -25 34 0
18 -16 15 -5 0
13 -3 -20 17 -36 0
37 30 20 26 23 0
35 31 30 -6 0
29 18 11 -28 0
-28 -21 9 5 0
21 -17 22 31 0
